benchmarks/bfuzz0/140968693285072323325544325332614821226.smt2
(set-logic QF_FP)
(declare-const x0 (_ FloatingPoint 8 24))
(declare-const x1 (_ FloatingPoint 8 24))
(declare-const x2 (_ FloatingPoint 8 24))
(declare-const x3 (_ FloatingPoint 8 24))
(declare-const x4 (_ FloatingPoint 8 24))
(assert (fp.geq (fp.mul RNE x1 x2) (fp.add RNE x4 x1)))
(assert (fp.geq (fp.add RNE x1 x1) (fp.mul RNE x0 x4)))
(assert (fp.eq (fp.sub RNE x4 x3) (fp.sub RNE x4 x2)))
(check-sat)
