db/data/140968693285072323325544325332614821226.z3.out
sat
-------------------
1.111525438
